c Standarized MaxSat Instance
c{
c "sha1sum": "84dc210c468bf3d1830de84e77c3152d1e774dd5",
c "nvars": 42,
c "ncls": 1310,
c "nhards": 0,
c "nhard_len_stats":
c    { "min": 0, "max": 0, "ave": 0.00,
c      "stddev": 0.00 },
c "nsofts": 1310,
c "nsoft_len_stats":
c    { "min": 2, "max": 2, "ave": 2.00,
c      "stddev": 0.00 },
c "nsoft_wts": 1,
c "soft_wt_stats":
c    { "min": 1, "max": 1, "ave": 1.00,
c      "stddev": 0.00 }
c}
c------------------------------------------------------------
c File  p_hat500-3.clq
c
c Source: P. Soriano and M. Gendreau at  patrick@crt.umontreal.ca
c
c Reference: p-hat graphs are generated with the p-hat generator
c 	      which is a generalization of the classical uniform
c 	      random graph generator.
c 	      Graphs generated with p-hat have wider node degree spread
c 	      and larger cliques than uniform graphs.
c
c NOTE: September 23, 1993 Corrected corrupted file at DIMACS.
c
c
c Generation parameters: 
c 	n =    500 a =  0.50  b =  1.00  Expected density =  0.75
c	Seed =      12513       Real density =  0.752
c
p wcnf 42 1310 1311
1 1 2 0
1 -1 -2 0
1 1 3 0
1 -1 -3 0
1 1 4 0
1 -1 -4 0
1 1 5 0
1 -1 -5 0
1 1 6 0
1 -1 -6 0
1 1 8 0
1 -1 -8 0
1 1 10 0
1 -1 -10 0
1 1 11 0
1 -1 -11 0
1 1 12 0
1 -1 -12 0
1 1 13 0
1 -1 -13 0
1 1 14 0
1 -1 -14 0
1 1 15 0
1 -1 -15 0
1 1 16 0
1 -1 -16 0
1 1 17 0
1 -1 -17 0
1 1 18 0
1 -1 -18 0
1 1 19 0
1 -1 -19 0
1 1 20 0
1 -1 -20 0
1 1 22 0
1 -1 -22 0
1 1 24 0
1 -1 -24 0
1 1 25 0
1 -1 -25 0
1 1 26 0
1 -1 -26 0
1 1 27 0
1 -1 -27 0
1 1 30 0
1 -1 -30 0
1 1 31 0
1 -1 -31 0
1 1 32 0
1 -1 -32 0
1 1 33 0
1 -1 -33 0
1 1 34 0
1 -1 -34 0
1 1 35 0
1 -1 -35 0
1 1 36 0
1 -1 -36 0
1 1 37 0
1 -1 -37 0
1 1 38 0
1 -1 -38 0
1 1 39 0
1 -1 -39 0
1 1 40 0
1 -1 -40 0
1 1 41 0
1 -1 -41 0
1 1 42 0
1 -1 -42 0
1 2 3 0
1 -2 -3 0
1 2 4 0
1 -2 -4 0
1 2 5 0
1 -2 -5 0
1 2 6 0
1 -2 -6 0
1 2 7 0
1 -2 -7 0
1 2 8 0
1 -2 -8 0
1 2 9 0
1 -2 -9 0
1 2 12 0
1 -2 -12 0
1 2 14 0
1 -2 -14 0
1 2 16 0
1 -2 -16 0
1 2 19 0
1 -2 -19 0
1 2 20 0
1 -2 -20 0
1 2 22 0
1 -2 -22 0
1 2 23 0
1 -2 -23 0
1 2 24 0
1 -2 -24 0
1 2 26 0
1 -2 -26 0
1 2 27 0
1 -2 -27 0
1 2 28 0
1 -2 -28 0
1 2 29 0
1 -2 -29 0
1 2 30 0
1 -2 -30 0
1 2 31 0
1 -2 -31 0
1 2 32 0
1 -2 -32 0
1 2 33 0
1 -2 -33 0
1 2 34 0
1 -2 -34 0
1 2 37 0
1 -2 -37 0
1 2 38 0
1 -2 -38 0
1 2 39 0
1 -2 -39 0
1 2 40 0
1 -2 -40 0
1 2 41 0
1 -2 -41 0
1 2 42 0
1 -2 -42 0
1 3 5 0
1 -3 -5 0
1 3 7 0
1 -3 -7 0
1 3 8 0
1 -3 -8 0
1 3 9 0
1 -3 -9 0
1 3 12 0
1 -3 -12 0
1 3 15 0
1 -3 -15 0
1 3 17 0
1 -3 -17 0
1 3 19 0
1 -3 -19 0
1 3 20 0
1 -3 -20 0
1 3 22 0
1 -3 -22 0
1 3 24 0
1 -3 -24 0
1 3 25 0
1 -3 -25 0
1 3 26 0
1 -3 -26 0
1 3 27 0
1 -3 -27 0
1 3 29 0
1 -3 -29 0
1 3 30 0
1 -3 -30 0
1 3 31 0
1 -3 -31 0
1 3 32 0
1 -3 -32 0
1 3 33 0
1 -3 -33 0
1 3 34 0
1 -3 -34 0
1 3 36 0
1 -3 -36 0
1 3 38 0
1 -3 -38 0
1 3 39 0
1 -3 -39 0
1 3 40 0
1 -3 -40 0
1 3 41 0
1 -3 -41 0
1 4 5 0
1 -4 -5 0
1 4 6 0
1 -4 -6 0
1 4 7 0
1 -4 -7 0
1 4 8 0
1 -4 -8 0
1 4 9 0
1 -4 -9 0
1 4 10 0
1 -4 -10 0
1 4 11 0
1 -4 -11 0
1 4 12 0
1 -4 -12 0
1 4 13 0
1 -4 -13 0
1 4 15 0
1 -4 -15 0
1 4 16 0
1 -4 -16 0
1 4 17 0
1 -4 -17 0
1 4 19 0
1 -4 -19 0
1 4 21 0
1 -4 -21 0
1 4 22 0
1 -4 -22 0
1 4 23 0
1 -4 -23 0
1 4 25 0
1 -4 -25 0
1 4 26 0
1 -4 -26 0
1 4 27 0
1 -4 -27 0
1 4 29 0
1 -4 -29 0
1 4 30 0
1 -4 -30 0
1 4 31 0
1 -4 -31 0
1 4 32 0
1 -4 -32 0
1 4 33 0
1 -4 -33 0
1 4 34 0
1 -4 -34 0
1 4 35 0
1 -4 -35 0
1 4 36 0
1 -4 -36 0
1 4 37 0
1 -4 -37 0
1 4 38 0
1 -4 -38 0
1 4 39 0
1 -4 -39 0
1 4 40 0
1 -4 -40 0
1 4 41 0
1 -4 -41 0
1 4 42 0
1 -4 -42 0
1 5 6 0
1 -5 -6 0
1 5 9 0
1 -5 -9 0
1 5 10 0
1 -5 -10 0
1 5 12 0
1 -5 -12 0
1 5 13 0
1 -5 -13 0
1 5 14 0
1 -5 -14 0
1 5 15 0
1 -5 -15 0
1 5 17 0
1 -5 -17 0
1 5 19 0
1 -5 -19 0
1 5 20 0
1 -5 -20 0
1 5 21 0
1 -5 -21 0
1 5 23 0
1 -5 -23 0
1 5 24 0
1 -5 -24 0
1 5 25 0
1 -5 -25 0
1 5 29 0
1 -5 -29 0
1 5 30 0
1 -5 -30 0
1 5 31 0
1 -5 -31 0
1 5 33 0
1 -5 -33 0
1 5 34 0
1 -5 -34 0
1 5 37 0
1 -5 -37 0
1 5 38 0
1 -5 -38 0
1 5 39 0
1 -5 -39 0
1 5 40 0
1 -5 -40 0
1 5 41 0
1 -5 -41 0
1 5 42 0
1 -5 -42 0
1 6 7 0
1 -6 -7 0
1 6 8 0
1 -6 -8 0
1 6 10 0
1 -6 -10 0
1 6 11 0
1 -6 -11 0
1 6 12 0
1 -6 -12 0
1 6 13 0
1 -6 -13 0
1 6 14 0
1 -6 -14 0
1 6 15 0
1 -6 -15 0
1 6 16 0
1 -6 -16 0
1 6 17 0
1 -6 -17 0
1 6 19 0
1 -6 -19 0
1 6 20 0
1 -6 -20 0
1 6 22 0
1 -6 -22 0
1 6 25 0
1 -6 -25 0
1 6 26 0
1 -6 -26 0
1 6 29 0
1 -6 -29 0
1 6 30 0
1 -6 -30 0
1 6 31 0
1 -6 -31 0
1 6 32 0
1 -6 -32 0
1 6 33 0
1 -6 -33 0
1 6 34 0
1 -6 -34 0
1 6 35 0
1 -6 -35 0
1 6 36 0
1 -6 -36 0
1 6 37 0
1 -6 -37 0
1 6 38 0
1 -6 -38 0
1 6 39 0
1 -6 -39 0
1 6 40 0
1 -6 -40 0
1 6 41 0
1 -6 -41 0
1 6 42 0
1 -6 -42 0
1 7 9 0
1 -7 -9 0
1 7 11 0
1 -7 -11 0
1 7 12 0
1 -7 -12 0
1 7 14 0
1 -7 -14 0
1 7 15 0
1 -7 -15 0
1 7 16 0
1 -7 -16 0
1 7 17 0
1 -7 -17 0
1 7 18 0
1 -7 -18 0
1 7 19 0
1 -7 -19 0
1 7 20 0
1 -7 -20 0
1 7 21 0
1 -7 -21 0
1 7 22 0
1 -7 -22 0
1 7 23 0
1 -7 -23 0
1 7 24 0
1 -7 -24 0
1 7 25 0
1 -7 -25 0
1 7 27 0
1 -7 -27 0
1 7 30 0
1 -7 -30 0
1 7 31 0
1 -7 -31 0
1 7 32 0
1 -7 -32 0
1 7 33 0
1 -7 -33 0
1 7 34 0
1 -7 -34 0
1 7 36 0
1 -7 -36 0
1 7 39 0
1 -7 -39 0
1 7 41 0
1 -7 -41 0
1 8 11 0
1 -8 -11 0
1 8 12 0
1 -8 -12 0
1 8 13 0
1 -8 -13 0
1 8 14 0
1 -8 -14 0
1 8 15 0
1 -8 -15 0
1 8 16 0
1 -8 -16 0
1 8 17 0
1 -8 -17 0
1 8 18 0
1 -8 -18 0
1 8 19 0
1 -8 -19 0
1 8 22 0
1 -8 -22 0
1 8 23 0
1 -8 -23 0
1 8 24 0
1 -8 -24 0
1 8 25 0
1 -8 -25 0
1 8 26 0
1 -8 -26 0
1 8 27 0
1 -8 -27 0
1 8 28 0
1 -8 -28 0
1 8 29 0
1 -8 -29 0
1 8 30 0
1 -8 -30 0
1 8 31 0
1 -8 -31 0
1 8 32 0
1 -8 -32 0
1 8 33 0
1 -8 -33 0
1 8 34 0
1 -8 -34 0
1 8 35 0
1 -8 -35 0
1 8 36 0
1 -8 -36 0
1 8 38 0
1 -8 -38 0
1 8 39 0
1 -8 -39 0
1 8 40 0
1 -8 -40 0
1 8 41 0
1 -8 -41 0
1 9 11 0
1 -9 -11 0
1 9 12 0
1 -9 -12 0
1 9 17 0
1 -9 -17 0
1 9 18 0
1 -9 -18 0
1 9 20 0
1 -9 -20 0
1 9 21 0
1 -9 -21 0
1 9 23 0
1 -9 -23 0
1 9 25 0
1 -9 -25 0
1 9 26 0
1 -9 -26 0
1 9 31 0
1 -9 -31 0
1 9 32 0
1 -9 -32 0
1 9 34 0
1 -9 -34 0
1 9 35 0
1 -9 -35 0
1 9 36 0
1 -9 -36 0
1 9 37 0
1 -9 -37 0
1 9 38 0
1 -9 -38 0
1 9 39 0
1 -9 -39 0
1 9 40 0
1 -9 -40 0
1 9 41 0
1 -9 -41 0
1 9 42 0
1 -9 -42 0
1 10 12 0
1 -10 -12 0
1 10 14 0
1 -10 -14 0
1 10 15 0
1 -10 -15 0
1 10 17 0
1 -10 -17 0
1 10 18 0
1 -10 -18 0
1 10 20 0
1 -10 -20 0
1 10 23 0
1 -10 -23 0
1 10 24 0
1 -10 -24 0
1 10 25 0
1 -10 -25 0
1 10 26 0
1 -10 -26 0
1 10 27 0
1 -10 -27 0
1 10 28 0
1 -10 -28 0
1 10 29 0
1 -10 -29 0
1 10 30 0
1 -10 -30 0
1 10 31 0
1 -10 -31 0
1 10 32 0
1 -10 -32 0
1 10 34 0
1 -10 -34 0
1 10 36 0
1 -10 -36 0
1 10 37 0
1 -10 -37 0
1 10 38 0
1 -10 -38 0
1 10 39 0
1 -10 -39 0
1 10 40 0
1 -10 -40 0
1 10 41 0
1 -10 -41 0
1 10 42 0
1 -10 -42 0
1 11 12 0
1 -11 -12 0
1 11 13 0
1 -11 -13 0
1 11 14 0
1 -11 -14 0
1 11 15 0
1 -11 -15 0
1 11 16 0
1 -11 -16 0
1 11 17 0
1 -11 -17 0
1 11 19 0
1 -11 -19 0
1 11 20 0
1 -11 -20 0
1 11 21 0
1 -11 -21 0
1 11 23 0
1 -11 -23 0
1 11 24 0
1 -11 -24 0
1 11 25 0
1 -11 -25 0
1 11 26 0
1 -11 -26 0
1 11 28 0
1 -11 -28 0
1 11 29 0
1 -11 -29 0
1 11 30 0
1 -11 -30 0
1 11 31 0
1 -11 -31 0
1 11 32 0
1 -11 -32 0
1 11 33 0
1 -11 -33 0
1 11 38 0
1 -11 -38 0
1 11 40 0
1 -11 -40 0
1 11 41 0
1 -11 -41 0
1 11 42 0
1 -11 -42 0
1 12 13 0
1 -12 -13 0
1 12 14 0
1 -12 -14 0
1 12 15 0
1 -12 -15 0
1 12 16 0
1 -12 -16 0
1 12 17 0
1 -12 -17 0
1 12 18 0
1 -12 -18 0
1 12 19 0
1 -12 -19 0
1 12 20 0
1 -12 -20 0
1 12 21 0
1 -12 -21 0
1 12 22 0
1 -12 -22 0
1 12 24 0
1 -12 -24 0
1 12 25 0
1 -12 -25 0
1 12 26 0
1 -12 -26 0
1 12 28 0
1 -12 -28 0
1 12 29 0
1 -12 -29 0
1 12 30 0
1 -12 -30 0
1 12 31 0
1 -12 -31 0
1 12 32 0
1 -12 -32 0
1 12 33 0
1 -12 -33 0
1 12 34 0
1 -12 -34 0
1 12 35 0
1 -12 -35 0
1 12 36 0
1 -12 -36 0
1 12 37 0
1 -12 -37 0
1 12 38 0
1 -12 -38 0
1 12 39 0
1 -12 -39 0
1 12 40 0
1 -12 -40 0
1 12 41 0
1 -12 -41 0
1 12 42 0
1 -12 -42 0
1 13 14 0
1 -13 -14 0
1 13 16 0
1 -13 -16 0
1 13 17 0
1 -13 -17 0
1 13 18 0
1 -13 -18 0
1 13 19 0
1 -13 -19 0
1 13 22 0
1 -13 -22 0
1 13 24 0
1 -13 -24 0
1 13 25 0
1 -13 -25 0
1 13 26 0
1 -13 -26 0
1 13 27 0
1 -13 -27 0
1 13 28 0
1 -13 -28 0
1 13 29 0
1 -13 -29 0
1 13 30 0
1 -13 -30 0
1 13 31 0
1 -13 -31 0
1 13 34 0
1 -13 -34 0
1 13 35 0
1 -13 -35 0
1 13 36 0
1 -13 -36 0
1 13 39 0
1 -13 -39 0
1 13 40 0
1 -13 -40 0
1 13 41 0
1 -13 -41 0
1 13 42 0
1 -13 -42 0
1 14 15 0
1 -14 -15 0
1 14 16 0
1 -14 -16 0
1 14 17 0
1 -14 -17 0
1 14 18 0
1 -14 -18 0
1 14 19 0
1 -14 -19 0
1 14 20 0
1 -14 -20 0
1 14 21 0
1 -14 -21 0
1 14 23 0
1 -14 -23 0
1 14 24 0
1 -14 -24 0
1 14 27 0
1 -14 -27 0
1 14 28 0
1 -14 -28 0
1 14 29 0
1 -14 -29 0
1 14 30 0
1 -14 -30 0
1 14 32 0
1 -14 -32 0
1 14 33 0
1 -14 -33 0
1 14 34 0
1 -14 -34 0
1 14 37 0
1 -14 -37 0
1 14 39 0
1 -14 -39 0
1 14 40 0
1 -14 -40 0
1 14 41 0
1 -14 -41 0
1 14 42 0
1 -14 -42 0
1 15 16 0
1 -15 -16 0
1 15 17 0
1 -15 -17 0
1 15 18 0
1 -15 -18 0
1 15 19 0
1 -15 -19 0
1 15 20 0
1 -15 -20 0
1 15 21 0
1 -15 -21 0
1 15 22 0
1 -15 -22 0
1 15 23 0
1 -15 -23 0
1 15 24 0
1 -15 -24 0
1 15 25 0
1 -15 -25 0
1 15 26 0
1 -15 -26 0
1 15 27 0
1 -15 -27 0
1 15 28 0
1 -15 -28 0
1 15 29 0
1 -15 -29 0
1 15 30 0
1 -15 -30 0
1 15 31 0
1 -15 -31 0
1 15 32 0
1 -15 -32 0
1 15 33 0
1 -15 -33 0
1 15 34 0
1 -15 -34 0
1 15 35 0
1 -15 -35 0
1 15 37 0
1 -15 -37 0
1 15 38 0
1 -15 -38 0
1 15 39 0
1 -15 -39 0
1 15 40 0
1 -15 -40 0
1 15 41 0
1 -15 -41 0
1 15 42 0
1 -15 -42 0
1 16 17 0
1 -16 -17 0
1 16 18 0
1 -16 -18 0
1 16 19 0
1 -16 -19 0
1 16 20 0
1 -16 -20 0
1 16 23 0
1 -16 -23 0
1 16 24 0
1 -16 -24 0
1 16 25 0
1 -16 -25 0
1 16 27 0
1 -16 -27 0
1 16 28 0
1 -16 -28 0
1 16 30 0
1 -16 -30 0
1 16 34 0
1 -16 -34 0
1 16 37 0
1 -16 -37 0
1 16 38 0
1 -16 -38 0
1 16 39 0
1 -16 -39 0
1 16 40 0
1 -16 -40 0
1 16 41 0
1 -16 -41 0
1 16 42 0
1 -16 -42 0
1 17 18 0
1 -17 -18 0
1 17 19 0
1 -17 -19 0
1 17 21 0
1 -17 -21 0
1 17 22 0
1 -17 -22 0
1 17 23 0
1 -17 -23 0
1 17 24 0
1 -17 -24 0
1 17 25 0
1 -17 -25 0
1 17 27 0
1 -17 -27 0
1 17 28 0
1 -17 -28 0
1 17 29 0
1 -17 -29 0
1 17 30 0
1 -17 -30 0
1 17 31 0
1 -17 -31 0
1 17 32 0
1 -17 -32 0
1 17 33 0
1 -17 -33 0
1 17 34 0
1 -17 -34 0
1 17 35 0
1 -17 -35 0
1 17 37 0
1 -17 -37 0
1 17 38 0
1 -17 -38 0
1 17 39 0
1 -17 -39 0
1 17 41 0
1 -17 -41 0
1 17 42 0
1 -17 -42 0
1 18 20 0
1 -18 -20 0
1 18 21 0
1 -18 -21 0
1 18 22 0
1 -18 -22 0
1 18 23 0
1 -18 -23 0
1 18 24 0
1 -18 -24 0
1 18 26 0
1 -18 -26 0
1 18 29 0
1 -18 -29 0
1 18 31 0
1 -18 -31 0
1 18 32 0
1 -18 -32 0
1 18 33 0
1 -18 -33 0
1 18 36 0
1 -18 -36 0
1 18 37 0
1 -18 -37 0
1 18 38 0
1 -18 -38 0
1 18 39 0
1 -18 -39 0
1 18 40 0
1 -18 -40 0
1 19 20 0
1 -19 -20 0
1 19 21 0
1 -19 -21 0
1 19 22 0
1 -19 -22 0
1 19 23 0
1 -19 -23 0
1 19 24 0
1 -19 -24 0
1 19 27 0
1 -19 -27 0
1 19 28 0
1 -19 -28 0
1 19 29 0
1 -19 -29 0
1 19 30 0
1 -19 -30 0
1 19 31 0
1 -19 -31 0
1 19 33 0
1 -19 -33 0
1 19 34 0
1 -19 -34 0
1 19 35 0
1 -19 -35 0
1 19 36 0
1 -19 -36 0
1 19 38 0
1 -19 -38 0
1 19 39 0
1 -19 -39 0
1 19 40 0
1 -19 -40 0
1 19 41 0
1 -19 -41 0
1 20 21 0
1 -20 -21 0
1 20 22 0
1 -20 -22 0
1 20 25 0
1 -20 -25 0
1 20 26 0
1 -20 -26 0
1 20 27 0
1 -20 -27 0
1 20 29 0
1 -20 -29 0
1 20 30 0
1 -20 -30 0
1 20 31 0
1 -20 -31 0
1 20 32 0
1 -20 -32 0
1 20 34 0
1 -20 -34 0
1 20 36 0
1 -20 -36 0
1 20 37 0
1 -20 -37 0
1 20 38 0
1 -20 -38 0
1 20 39 0
1 -20 -39 0
1 20 41 0
1 -20 -41 0
1 21 22 0
1 -21 -22 0
1 21 24 0
1 -21 -24 0
1 21 25 0
1 -21 -25 0
1 21 26 0
1 -21 -26 0
1 21 27 0
1 -21 -27 0
1 21 28 0
1 -21 -28 0
1 21 29 0
1 -21 -29 0
1 21 30 0
1 -21 -30 0
1 21 31 0
1 -21 -31 0
1 21 32 0
1 -21 -32 0
1 21 33 0
1 -21 -33 0
1 21 34 0
1 -21 -34 0
1 21 37 0
1 -21 -37 0
1 21 38 0
1 -21 -38 0
1 21 39 0
1 -21 -39 0
1 21 42 0
1 -21 -42 0
1 22 24 0
1 -22 -24 0
1 22 25 0
1 -22 -25 0
1 22 26 0
1 -22 -26 0
1 22 27 0
1 -22 -27 0
1 22 28 0
1 -22 -28 0
1 22 30 0
1 -22 -30 0
1 22 31 0
1 -22 -31 0
1 22 32 0
1 -22 -32 0
1 22 33 0
1 -22 -33 0
1 22 34 0
1 -22 -34 0
1 22 35 0
1 -22 -35 0
1 22 38 0
1 -22 -38 0
1 22 39 0
1 -22 -39 0
1 22 40 0
1 -22 -40 0
1 22 42 0
1 -22 -42 0
1 23 24 0
1 -23 -24 0
1 23 25 0
1 -23 -25 0
1 23 26 0
1 -23 -26 0
1 23 27 0
1 -23 -27 0
1 23 28 0
1 -23 -28 0
1 23 29 0
1 -23 -29 0
1 23 31 0
1 -23 -31 0
1 23 33 0
1 -23 -33 0
1 23 34 0
1 -23 -34 0
1 23 35 0
1 -23 -35 0
1 23 36 0
1 -23 -36 0
1 23 37 0
1 -23 -37 0
1 23 38 0
1 -23 -38 0
1 23 39 0
1 -23 -39 0
1 23 40 0
1 -23 -40 0
1 23 41 0
1 -23 -41 0
1 24 25 0
1 -24 -25 0
1 24 26 0
1 -24 -26 0
1 24 30 0
1 -24 -30 0
1 24 31 0
1 -24 -31 0
1 24 32 0
1 -24 -32 0
1 24 33 0
1 -24 -33 0
1 24 34 0
1 -24 -34 0
1 24 35 0
1 -24 -35 0
1 24 36 0
1 -24 -36 0
1 24 37 0
1 -24 -37 0
1 24 39 0
1 -24 -39 0
1 24 40 0
1 -24 -40 0
1 24 41 0
1 -24 -41 0
1 24 42 0
1 -24 -42 0
1 25 27 0
1 -25 -27 0
1 25 28 0
1 -25 -28 0
1 25 30 0
1 -25 -30 0
1 25 31 0
1 -25 -31 0
1 25 32 0
1 -25 -32 0
1 25 33 0
1 -25 -33 0
1 25 34 0
1 -25 -34 0
1 25 35 0
1 -25 -35 0
1 25 36 0
1 -25 -36 0
1 25 40 0
1 -25 -40 0
1 25 41 0
1 -25 -41 0
1 25 42 0
1 -25 -42 0
1 26 27 0
1 -26 -27 0
1 26 29 0
1 -26 -29 0
1 26 30 0
1 -26 -30 0
1 26 31 0
1 -26 -31 0
1 26 32 0
1 -26 -32 0
1 26 34 0
1 -26 -34 0
1 26 35 0
1 -26 -35 0
1 26 38 0
1 -26 -38 0
1 26 39 0
1 -26 -39 0
1 26 40 0
1 -26 -40 0
1 26 41 0
1 -26 -41 0
1 27 28 0
1 -27 -28 0
1 27 29 0
1 -27 -29 0
1 27 30 0
1 -27 -30 0
1 27 31 0
1 -27 -31 0
1 27 32 0
1 -27 -32 0
1 27 34 0
1 -27 -34 0
1 27 36 0
1 -27 -36 0
1 27 37 0
1 -27 -37 0
1 27 39 0
1 -27 -39 0
1 27 40 0
1 -27 -40 0
1 27 41 0
1 -27 -41 0
1 28 30 0
1 -28 -30 0
1 28 32 0
1 -28 -32 0
1 28 33 0
1 -28 -33 0
1 28 34 0
1 -28 -34 0
1 28 37 0
1 -28 -37 0
1 28 38 0
1 -28 -38 0
1 28 39 0
1 -28 -39 0
1 28 41 0
1 -28 -41 0
1 28 42 0
1 -28 -42 0
1 29 30 0
1 -29 -30 0
1 29 31 0
1 -29 -31 0
1 29 32 0
1 -29 -32 0
1 29 34 0
1 -29 -34 0
1 29 36 0
1 -29 -36 0
1 29 38 0
1 -29 -38 0
1 29 39 0
1 -29 -39 0
1 29 41 0
1 -29 -41 0
1 29 42 0
1 -29 -42 0
1 30 31 0
1 -30 -31 0
1 30 32 0
1 -30 -32 0
1 30 34 0
1 -30 -34 0
1 30 36 0
1 -30 -36 0
1 30 38 0
1 -30 -38 0
1 30 39 0
1 -30 -39 0
1 30 40 0
1 -30 -40 0
1 30 41 0
1 -30 -41 0
1 30 42 0
1 -30 -42 0
1 31 32 0
1 -31 -32 0
1 31 35 0
1 -31 -35 0
1 31 36 0
1 -31 -36 0
1 31 37 0
1 -31 -37 0
1 31 38 0
1 -31 -38 0
1 31 39 0
1 -31 -39 0
1 31 40 0
1 -31 -40 0
1 31 41 0
1 -31 -41 0
1 31 42 0
1 -31 -42 0
1 32 34 0
1 -32 -34 0
1 32 35 0
1 -32 -35 0
1 32 36 0
1 -32 -36 0
1 32 37 0
1 -32 -37 0
1 32 38 0
1 -32 -38 0
1 32 39 0
1 -32 -39 0
1 32 40 0
1 -32 -40 0
1 32 41 0
1 -32 -41 0
1 32 42 0
1 -32 -42 0
1 33 34 0
1 -33 -34 0
1 33 36 0
1 -33 -36 0
1 33 37 0
1 -33 -37 0
1 33 38 0
1 -33 -38 0
1 33 39 0
1 -33 -39 0
1 33 40 0
1 -33 -40 0
1 33 41 0
1 -33 -41 0
1 33 42 0
1 -33 -42 0
1 34 35 0
1 -34 -35 0
1 34 36 0
1 -34 -36 0
1 34 37 0
1 -34 -37 0
1 34 38 0
1 -34 -38 0
1 34 39 0
1 -34 -39 0
1 34 40 0
1 -34 -40 0
1 34 41 0
1 -34 -41 0
1 34 42 0
1 -34 -42 0
1 35 37 0
1 -35 -37 0
1 35 40 0
1 -35 -40 0
1 35 41 0
1 -35 -41 0
1 35 42 0
1 -35 -42 0
1 36 37 0
1 -36 -37 0
1 36 38 0
1 -36 -38 0
1 36 39 0
1 -36 -39 0
1 36 40 0
1 -36 -40 0
1 36 41 0
1 -36 -41 0
1 37 38 0
1 -37 -38 0
1 37 39 0
1 -37 -39 0
1 37 40 0
1 -37 -40 0
1 38 39 0
1 -38 -39 0
1 38 40 0
1 -38 -40 0
1 38 41 0
1 -38 -41 0
1 39 40 0
1 -39 -40 0
1 39 41 0
1 -39 -41 0
1 39 42 0
1 -39 -42 0
1 40 41 0
1 -40 -41 0
1 40 42 0
1 -40 -42 0
1 41 42 0
1 -41 -42 0
